solution/p_3_9.txt_600.row.sol
<?xml version = "1.0" encoding="UTF-8" standalone="yes"?>
<CPLEXSolution version="1.2">
 <header
   problemName="ilog.cplex"
   solutionName="incumbent"
   solutionIndex="-1"
   objectiveValue="291"
   solutionTypeValue="3"
   solutionTypeString="primal"
   solutionStatusValue="101"
   solutionStatusString="integer optimal solution"
   solutionMethodString="mip"
   primalFeasible="1"
   dualFeasible="1"
   MIPNodes="0"
   MIPIterations="4"
   writeLevel="1"/>
 <quality
   epInt="1.0000000000000001e-05"
   epRHS="9.9999999999999995e-07"
   maxIntInfeas="0"
   maxPrimalInfeas="0"
   maxX="1"
   maxSlack="6"/>
 <linearConstraints>
  <constraint index="0" slack="0"/>
  <constraint index="1" slack="6"/>
  <constraint index="2" slack="5"/>
  <constraint index="3" slack="0"/>
  <constraint index="4" slack="0"/>
  <constraint index="5" slack="1"/>
  <constraint index="6" slack="1"/>
  <constraint index="7" slack="1"/>
  <constraint index="8" slack="1"/>
  <constraint index="9" slack="0"/>
  <constraint index="10" slack="0"/>
  <constraint index="11" slack="0"/>
  <constraint index="12" slack="0"/>
  <constraint index="13" slack="0"/>
  <constraint index="14" slack="1"/>
  <constraint index="15" slack="0"/>
  <constraint index="16" slack="0"/>
  <constraint index="17" slack="0"/>
  <constraint index="18" slack="0"/>
  <constraint index="19" slack="0"/>
  <constraint index="20" slack="0"/>
  <constraint index="21" slack="0"/>
  <constraint index="22" slack="0"/>
  <constraint index="23" slack="0"/>
  <constraint index="24" slack="1"/>
  <constraint index="25" slack="0"/>
  <constraint index="26" slack="0"/>
  <constraint index="27" slack="0"/>
  <constraint index="28" slack="0"/>
  <constraint index="29" slack="0"/>
 </linearConstraints>
 <variables>
  <variable name="x_ijk_0_0_0" index="0" value="0"/>
  <variable name="x_ijk_0_1_0" index="1" value="0"/>
  <variable name="x_ijk_0_2_0" index="2" value="0"/>
  <variable name="x_ijk_0_3_0" index="3" value="1"/>
  <variable name="x_ijk_1_0_0" index="4" value="0"/>
  <variable name="x_ijk_1_1_0" index="5" value="0"/>
  <variable name="x_ijk_1_2_0" index="6" value="0"/>
  <variable name="x_ijk_1_3_0" index="7" value="0"/>
  <variable name="x_ijk_1_4_0" index="8" value="0"/>
  <variable name="x_ijk_2_0_0" index="9" value="0"/>
  <variable name="x_ijk_2_1_0" index="10" value="1"/>
  <variable name="x_ijk_2_2_0" index="11" value="0"/>
  <variable name="x_ijk_2_3_0" index="12" value="0"/>
  <variable name="x_ijk_2_4_0" index="13" value="0"/>
  <variable name="x_ijk_3_0_0" index="14" value="0"/>
  <variable name="x_ijk_3_1_0" index="15" value="1"/>
  <variable name="x_ijk_3_2_0" index="16" value="0"/>
  <variable name="x_ijk_4_0_0" index="17" value="0"/>
  <variable name="x_ijk_4_1_0" index="18" value="1"/>
  <variable name="x_ijk_4_2_0" index="19" value="0"/>
  <variable name="x_ijk_4_3_0" index="20" value="0"/>
  <variable name="x_ijk_5_0_0" index="21" value="1"/>
  <variable name="x_ijk_5_1_0" index="22" value="0"/>
  <variable name="x_ijk_5_2_0" index="23" value="0"/>
  <variable name="x_ijk_6_0_0" index="24" value="1"/>
  <variable name="x_ijk_6_1_0" index="25" value="0"/>
  <variable name="x_ijk_6_2_0" index="26" value="0"/>
  <variable name="x_ijk_6_3_0" index="27" value="0"/>
  <variable name="x_ijk_7_0_0" index="28" value="0"/>
  <variable name="x_ijk_7_1_0" index="29" value="0"/>
  <variable name="x_ijk_8_0_0" index="30" value="0"/>
  <variable name="x_ijk_8_1_0" index="31" value="0"/>
  <variable name="x_ijk_8_2_0" index="32" value="1"/>
  <variable name="x_ijk_8_3_0" index="33" value="0"/>
  <variable name="x_ijk_8_4_0" index="34" value="0"/>
  <variable name="x_ijk_0_0_1" index="35" value="0"/>
  <variable name="x_ijk_0_1_1" index="36" value="1"/>
  <variable name="x_ijk_0_2_1" index="37" value="0"/>
  <variable name="x_ijk_0_3_1" index="38" value="0"/>
  <variable name="x_ijk_1_0_1" index="39" value="0"/>
  <variable name="x_ijk_1_1_1" index="40" value="0"/>
  <variable name="x_ijk_1_2_1" index="41" value="0"/>
  <variable name="x_ijk_1_3_1" index="42" value="0"/>
  <variable name="x_ijk_1_4_1" index="43" value="0"/>
  <variable name="x_ijk_2_0_1" index="44" value="1"/>
  <variable name="x_ijk_2_1_1" index="45" value="0"/>
  <variable name="x_ijk_2_2_1" index="46" value="0"/>
  <variable name="x_ijk_2_3_1" index="47" value="0"/>
  <variable name="x_ijk_2_4_1" index="48" value="0"/>
  <variable name="x_ijk_3_0_1" index="49" value="1"/>
  <variable name="x_ijk_3_1_1" index="50" value="0"/>
  <variable name="x_ijk_3_2_1" index="51" value="0"/>
  <variable name="x_ijk_4_0_1" index="52" value="0"/>
  <variable name="x_ijk_4_1_1" index="53" value="1"/>
  <variable name="x_ijk_4_2_1" index="54" value="0"/>
  <variable name="x_ijk_4_3_1" index="55" value="0"/>
  <variable name="x_ijk_5_0_1" index="56" value="1"/>
  <variable name="x_ijk_5_1_1" index="57" value="0"/>
  <variable name="x_ijk_5_2_1" index="58" value="0"/>
  <variable name="x_ijk_6_0_1" index="59" value="1"/>
  <variable name="x_ijk_6_1_1" index="60" value="0"/>
  <variable name="x_ijk_6_2_1" index="61" value="0"/>
  <variable name="x_ijk_6_3_1" index="62" value="0"/>
  <variable name="x_ijk_7_0_1" index="63" value="0"/>
  <variable name="x_ijk_7_1_1" index="64" value="1"/>
  <variable name="x_ijk_8_0_1" index="65" value="0"/>
  <variable name="x_ijk_8_1_1" index="66" value="1"/>
  <variable name="x_ijk_8_2_1" index="67" value="0"/>
  <variable name="x_ijk_8_3_1" index="68" value="0"/>
  <variable name="x_ijk_8_4_1" index="69" value="0"/>
  <variable name="x_ijk_0_0_2" index="70" value="0"/>
  <variable name="x_ijk_0_1_2" index="71" value="0"/>
  <variable name="x_ijk_0_2_2" index="72" value="0"/>
  <variable name="x_ijk_0_3_2" index="73" value="0"/>
  <variable name="x_ijk_1_0_2" index="74" value="0"/>
  <variable name="x_ijk_1_1_2" index="75" value="0"/>
  <variable name="x_ijk_1_2_2" index="76" value="0"/>
  <variable name="x_ijk_1_3_2" index="77" value="0"/>
  <variable name="x_ijk_1_4_2" index="78" value="0"/>
  <variable name="x_ijk_2_0_2" index="79" value="0"/>
  <variable name="x_ijk_2_1_2" index="80" value="0"/>
  <variable name="x_ijk_2_2_2" index="81" value="0"/>
  <variable name="x_ijk_2_3_2" index="82" value="1"/>
  <variable name="x_ijk_2_4_2" index="83" value="0"/>
  <variable name="x_ijk_3_0_2" index="84" value="0"/>
  <variable name="x_ijk_3_1_2" index="85" value="0"/>
  <variable name="x_ijk_3_2_2" index="86" value="0"/>
  <variable name="x_ijk_4_0_2" index="87" value="0"/>
  <variable name="x_ijk_4_1_2" index="88" value="1"/>
  <variable name="x_ijk_4_2_2" index="89" value="0"/>
  <variable name="x_ijk_4_3_2" index="90" value="0"/>
  <variable name="x_ijk_5_0_2" index="91" value="1"/>
  <variable name="x_ijk_5_1_2" index="92" value="0"/>
  <variable name="x_ijk_5_2_2" index="93" value="0"/>
  <variable name="x_ijk_6_0_2" index="94" value="1"/>
  <variable name="x_ijk_6_1_2" index="95" value="0"/>
  <variable name="x_ijk_6_2_2" index="96" value="0"/>
  <variable name="x_ijk_6_3_2" index="97" value="0"/>
  <variable name="x_ijk_7_0_2" index="98" value="0"/>
  <variable name="x_ijk_7_1_2" index="99" value="1"/>
  <variable name="x_ijk_8_0_2" index="100" value="0"/>
  <variable name="x_ijk_8_1_2" index="101" value="1"/>
  <variable name="x_ijk_8_2_2" index="102" value="0"/>
  <variable name="x_ijk_8_3_2" index="103" value="0"/>
  <variable name="x_ijk_8_4_2" index="104" value="0"/>
 </variables>
</CPLEXSolution>
